
Gurobi 11.0.1 (win64) logging started Thu May 16 18:25:46 2024

Set parameter LogFile to value "output/solver_log10.txt"
Gurobi Optimizer version 11.0.1 build v11.0.1rc0 (win64 - Windows 11.0 (22631.2))

CPU model: 11th Gen Intel(R) Core(TM) i7-1165G7 @ 2.80GHz, instruction set [SSE2|AVX|AVX2|AVX512]
Thread count: 4 physical cores, 8 logical processors, using up to 8 threads

Optimize a model with 4390 rows, 1086 columns and 81535 nonzeros
Model fingerprint: 0xf171a67f
Variable types: 568 continuous, 518 integer (518 binary)
Coefficient statistics:
  Matrix range     [4e-01, 1e+05]
  Objective range  [1e+00, 1e+02]
  Bounds range     [1e+00, 1e+00]
  RHS range        [1e-02, 1e+05]

User MIP start produced solution with objective 40211.2 (0.01s)
User MIP start produced solution with objective 40211.2 (0.01s)
Loaded user MIP start with objective 40211.2

Presolve removed 389 rows and 244 columns
Presolve time: 0.09s
Presolved: 4001 rows, 842 columns, 75749 nonzeros
Variable types: 530 continuous, 312 integer (304 binary)

Root relaxation: objective 5.070156e+04, 1220 iterations, 0.06 seconds (0.12 work units)

    Nodes    |    Current Node    |     Objective Bounds      |     Work
 Expl Unexpl |  Obj  Depth IntInf | Incumbent    BestBd   Gap | It/Node Time

     0     0 50701.5581    0   34 40211.1624 50701.5581  26.1%     -    0s
     0     0 49024.5409    0   42 40211.1624 49024.5409  21.9%     -    0s
     0     0 48976.7203    0   42 40211.1624 48976.7203  21.8%     -    0s
     0     0 48862.9794    0   50 40211.1624 48862.9794  21.5%     -    0s
     0     0 48670.7282    0   54 40211.1624 48670.7282  21.0%     -    0s
     0     0 48670.7282    0   54 40211.1624 48670.7282  21.0%     -    0s
     0     0 48139.5498    0   60 40211.1624 48139.5498  19.7%     -    1s
     0     0 46774.7980    0   69 40211.1624 46774.7980  16.3%     -    1s
     0     0 46774.7980    0   74 40211.1624 46774.7980  16.3%     -    1s
     0     0 46774.7980    0   69 40211.1624 46774.7980  16.3%     -    1s
     0     0 46774.7980    0   70 40211.1624 46774.7980  16.3%     -    1s
     0     0 46774.7980    0   79 40211.1624 46774.7980  16.3%     -    1s
     0     0 46774.7980    0   67 40211.1624 46774.7980  16.3%     -    1s
     0     0 46774.7980    0   73 40211.1624 46774.7980  16.3%     -    1s
     0     0 46774.7980    0   73 40211.1624 46774.7980  16.3%     -    1s
     0     0 46774.7980    0   68 40211.1624 46774.7980  16.3%     -    2s
     0     0 46774.7980    0   72 40211.1624 46774.7980  16.3%     -    2s
     0     0 46774.7980    0   67 40211.1624 46774.7980  16.3%     -    2s
     0     0 46774.7980    0   71 40211.1624 46774.7980  16.3%     -    2s
     0     0 46774.7980    0   70 40211.1624 46774.7980  16.3%     -    2s
     0     0 46774.7980    0   73 40211.1624 46774.7980  16.3%     -    2s
     0     0 46774.7980    0   77 40211.1624 46774.7980  16.3%     -    2s
     0     0 46774.7980    0   65 40211.1624 46774.7980  16.3%     -    2s
     0     0 46774.7980    0   74 40211.1624 46774.7980  16.3%     -    2s
     0     0 46774.7980    0   75 40211.1624 46774.7980  16.3%     -    2s
     0     0 46774.7980    0   74 40211.1624 46774.7980  16.3%     -    2s
     0     0 46774.7980    0   73 40211.1624 46774.7980  16.3%     -    2s
     0     0 46774.7980    0   74 40211.1624 46774.7980  16.3%     -    2s
     0     0 46774.7980    0   70 40211.1624 46774.7980  16.3%     -    3s
     0     0 46774.7980    0   69 40211.1624 46774.7980  16.3%     -    3s
     0     0 46774.7980    0   70 40211.1624 46774.7980  16.3%     -    3s
     0     0 46774.7980    0   70 40211.1624 46774.7980  16.3%     -    3s
     0     0 46774.7980    0   62 40211.1624 46774.7980  16.3%     -    3s
     0     2 46774.7980    0   62 40211.1624 46774.7980  16.3%     -    3s
    76    72 40664.1850   18   19 40211.1624 45331.2642  12.7%   491    5s
H  236   157                    40211.173514 44957.7681  11.8%   496    7s
H  363   214                    40211.417455 44702.6580  11.2%   505    9s
H  412   225                    40211.540123 44702.6580  11.2%   495    9s
H  426   225                    40211.642728 44405.0444  10.4%   498    9s
   452   244 41207.3189   11   19 40211.6427 44405.0444  10.4%   509   10s
H  472   244                    40211.946143 44405.0444  10.4%   506   10s
H  512   254                    40212.973163 44121.4540  9.72%   499   10s
H  525   254                    40214.113017 44121.4540  9.72%   497   10s
H  575   268                    40214.121634 43946.1776  9.28%   503   11s
H  779   315                    40232.692949 43140.3517  7.23%   503   14s
H  788   317                    40233.502135 43140.3517  7.22%   503   14s
   805   320 40402.1842   11   21 40233.5021 43054.4444  7.01%   503   15s
* 1091   424              97    40235.818558 42899.1955  6.62%   462   16s
  1189   416 40571.0884   13   38 40235.8186 42816.0907  6.41%   451   20s
H 1203   408                    40243.037577 42816.0907  6.39%   449   20s
H 1554   424                    40243.570808 42449.1259  5.48%   447   23s
  1747   412 40406.3466   14   50 40243.5708 42225.1624  4.92%   447   25s
  2268   407     cutoff   13      40243.5708 41882.3727  4.07%   450   30s
  2593   395 40676.2541   13   21 40243.5708 41666.3117  3.54%   450   35s
H 2594   394                    40243.607085 41666.3117  3.54%   449   35s
  3118   302     cutoff   13      40243.6071 41209.5495  2.40%   441   40s
* 3787   183              88    40243.804991 40765.5426  1.30%   419   44s
H 3819   181                    40244.167756 40756.8856  1.27%   416   44s
  3905   483 40246.5770   61   11 40244.1678 40609.9378  0.91%   414   45s
* 4155   483              83    40244.756673 40609.9378  0.91%   392   45s
  4690   467 40247.9036   35   62 40244.7567 40609.9378  0.91%   350   53s
  4697   472 40247.9563   27   53 40244.7567 40609.9378  0.91%   350   55s

Cutting planes:
  Gomory: 1
  Implied bound: 7
  Projected implied bound: 1
  MIR: 36
  Flow cover: 33
  RLT: 1
  Relax-and-lift: 1
  BQP: 1

Explored 4756 nodes (1703731 simplex iterations) in 60.01 seconds (120.68 work units)
Thread count was 8 (of 8 available processors)

Solution count 10: 40244.8 40244.2 40243.8 ... 40214.1

Time limit reached
Best objective 4.024475667294e+04, best bound 4.060993784032e+04, gap 0.9074%
